s td 11 30 40
b 1 1 2 3 5 6 7 9 10 11 12 13 15 16 17 18 19 22 23 26 27 28 30 31 33 34 35 36 37 38 39
b 2 1 2 4 5 6 9 11 13 15 16 17 26 27 28 31 33 34 36 37 38
b 3 1 2 3 5 6 9 10 11 12 13 15 16 17 18 19 22 23 26 27 28 30 31 32 33 34 35 36 37 38 39
b 4 1 2 3 5 6 9 10 11 12 13 15 16 17 18 19 22 23 24 26 27 30 31 32 33 34 35 37 38 39
b 5 2 3 5 6 9 10 11 12 13 15 17 18 19 23 24 26 27 29 31 32 33 34 35 37 38 39
b 6 2 6 8 9 10 12 13 18 19 23 24 26 29 31 33 38
b 7 2 6 10 11 12 18 21 23 24 26 27 29 31 32 33 34 35 38 39
b 8 1 2 3 5 6 7 9 10 11 14 15 16 18 22 28 31 33 34 35 36 38
b 9 1 2 5 6 10 12 13 15 17 19 20 23 28 30 31 35 36 38 39
b 10 1 2 3 5 6 7 9 11 13 15 17 18 19 22 23 25 26 27 28 33 34 35 36 38 39
b 11 3 5 7 11 17 18 19 22 25 26 27 28 38 39 40
1 2
1 3
1 8
1 9
1 10
3 4
4 5
5 6
5 7
10 11
